Minimize
a0 + a1 + a2 + a3 + a4 + a5 + a6 + a7 + a8 + a9 + a10 + a11 + a12

Subject To
x0 - a0 <= 0 
x1 - a0 <= 0 
x2 - a0 <= 0 
x3 - a0 <= 0 
x0 + x1 + x2 + x3 - a0 >= 0 
4 x0 + 4 x1 + 4 x2 + 4 x3 - x16 - x17 - x18 - x19 >= 0
4 x16 + 4 x17 + 4 x18 + 4 x19 - x0 - x1 - x2 - x3 >= 0
x0 + x1 + x2 + x3 + x16 + x17 + x18 + x19 - 3 d0 >= 0
d0 - x0 >= 0
d0 - x1 >= 0
d0 - x2 >= 0
d0 - x3 >= 0
d0 - x16 >= 0
d0 - x17 >= 0
d0 - x18 >= 0
d0 - x19 >= 0
x4 - a1 <= 0 
x5 - a1 <= 0 
x6 - a1 <= 0 
x7 - a1 <= 0 
x4 + x5 + x6 + x7 - a1 >= 0 
4 x4 + 4 x5 + 4 x6 + 4 x7 - x20 - x21 - x22 - x23 >= 0
4 x20 + 4 x21 + 4 x22 + 4 x23 - x4 - x5 - x6 - x7 >= 0
x4 + x5 + x6 + x7 + x20 + x21 + x22 + x23 - 3 d1 >= 0
d1 - x4 >= 0
d1 - x5 >= 0
d1 - x6 >= 0
d1 - x7 >= 0
d1 - x20 >= 0
d1 - x21 >= 0
d1 - x22 >= 0
d1 - x23 >= 0
x8 - a2 <= 0 
x9 - a2 <= 0 
x10 - a2 <= 0 
x11 - a2 <= 0 
x8 + x9 + x10 + x11 - a2 >= 0 
4 x8 + 4 x9 + 4 x10 + 4 x11 - x24 - x25 - x26 - x27 >= 0
4 x24 + 4 x25 + 4 x26 + 4 x27 - x8 - x9 - x10 - x11 >= 0
x8 + x9 + x10 + x11 + x24 + x25 + x26 + x27 - 3 d2 >= 0
d2 - x8 >= 0
d2 - x9 >= 0
d2 - x10 >= 0
d2 - x11 >= 0
d2 - x24 >= 0
d2 - x25 >= 0
d2 - x26 >= 0
d2 - x27 >= 0
x12 - a3 <= 0 
x13 - a3 <= 0 
x14 - a3 <= 0 
x15 - a3 <= 0 
x12 + x13 + x14 + x15 - a3 >= 0 
4 x12 + 4 x13 + 4 x14 + 4 x15 - x28 - x29 - x30 - x31 >= 0
4 x28 + 4 x29 + 4 x30 + 4 x31 - x12 - x13 - x14 - x15 >= 0
x12 + x13 + x14 + x15 + x28 + x29 + x30 + x31 - 3 d3 >= 0
d3 - x12 >= 0
d3 - x13 >= 0
d3 - x14 >= 0
d3 - x15 >= 0
d3 - x28 >= 0
d3 - x29 >= 0
d3 - x30 >= 0
d3 - x31 >= 0
x16 - a4 <= 0 
x20 - a4 <= 0 
x24 - a4 <= 0 
x28 - a4 <= 0 
x16 + x20 + x24 + x28 - a4 >= 0 
4 x16 + 4 x20 + 4 x24 + 4 x28 - x32 - x33 - x34 - x35 >= 0
4 x32 + 4 x33 + 4 x34 + 4 x35 - x16 - x20 - x24 - x28 >= 0
x16 + x20 + x24 + x28 + x32 + x33 + x34 + x35 - 3 d4 >= 0
d4 - x16 >= 0
d4 - x20 >= 0
d4 - x24 >= 0
d4 - x28 >= 0
d4 - x32 >= 0
d4 - x33 >= 0
d4 - x34 >= 0
d4 - x35 >= 0
x17 - a5 <= 0 
x21 - a5 <= 0 
x25 - a5 <= 0 
x29 - a5 <= 0 
x17 + x21 + x25 + x29 - a5 >= 0 
4 x17 + 4 x21 + 4 x25 + 4 x29 - x36 - x37 - x38 - x39 >= 0
4 x36 + 4 x37 + 4 x38 + 4 x39 - x17 - x21 - x25 - x29 >= 0
x17 + x21 + x25 + x29 + x36 + x37 + x38 + x39 - 3 d5 >= 0
d5 - x17 >= 0
d5 - x21 >= 0
d5 - x25 >= 0
d5 - x29 >= 0
d5 - x36 >= 0
d5 - x37 >= 0
d5 - x38 >= 0
d5 - x39 >= 0
x18 - a6 <= 0 
x22 - a6 <= 0 
x26 - a6 <= 0 
x30 - a6 <= 0 
x18 + x22 + x26 + x30 - a6 >= 0 
4 x18 + 4 x22 + 4 x26 + 4 x30 - x40 - x41 - x42 - x43 >= 0
4 x40 + 4 x41 + 4 x42 + 4 x43 - x18 - x22 - x26 - x30 >= 0
x18 + x22 + x26 + x30 + x40 + x41 + x42 + x43 - 3 d6 >= 0
d6 - x18 >= 0
d6 - x22 >= 0
d6 - x26 >= 0
d6 - x30 >= 0
d6 - x40 >= 0
d6 - x41 >= 0
d6 - x42 >= 0
d6 - x43 >= 0
x19 - a7 <= 0 
x23 - a7 <= 0 
x27 - a7 <= 0 
x31 - a7 <= 0 
x19 + x23 + x27 + x31 - a7 >= 0 
4 x19 + 4 x23 + 4 x27 + 4 x31 - x44 - x45 - x46 - x47 >= 0
4 x44 + 4 x45 + 4 x46 + 4 x47 - x19 - x23 - x27 - x31 >= 0
x19 + x23 + x27 + x31 + x44 + x45 + x46 + x47 - 3 d7 >= 0
d7 - x19 >= 0
d7 - x23 >= 0
d7 - x27 >= 0
d7 - x31 >= 0
d7 - x44 >= 0
d7 - x45 >= 0
d7 - x46 >= 0
d7 - x47 >= 0
x32 - a8 <= 0 
x36 - a8 <= 0 
x40 - a8 <= 0 
x44 - a8 <= 0 
x32 + x36 + x40 + x44 - a8 >= 0 
4 x32 + 4 x36 + 4 x40 + 4 x44 - x48 - x49 - x50 - x51 >= 0
4 x48 + 4 x49 + 4 x50 + 4 x51 - x32 - x36 - x40 - x44 >= 0
x32 + x36 + x40 + x44 + x48 + x49 + x50 + x51 - 3 d8 >= 0
d8 - x32 >= 0
d8 - x36 >= 0
d8 - x40 >= 0
d8 - x44 >= 0
d8 - x48 >= 0
d8 - x49 >= 0
d8 - x50 >= 0
d8 - x51 >= 0
x33 - a9 <= 0 
x37 - a9 <= 0 
x41 - a9 <= 0 
x45 - a9 <= 0 
x33 + x37 + x41 + x45 - a9 >= 0 
4 x33 + 4 x37 + 4 x41 + 4 x45 - x52 - x53 - x54 - x55 >= 0
4 x52 + 4 x53 + 4 x54 + 4 x55 - x33 - x37 - x41 - x45 >= 0
x33 + x37 + x41 + x45 + x52 + x53 + x54 + x55 - 3 d9 >= 0
d9 - x33 >= 0
d9 - x37 >= 0
d9 - x41 >= 0
d9 - x45 >= 0
d9 - x52 >= 0
d9 - x53 >= 0
d9 - x54 >= 0
d9 - x55 >= 0
x34 - a10 <= 0 
x38 - a10 <= 0 
x42 - a10 <= 0 
x46 - a10 <= 0 
x34 + x38 + x42 + x46 - a10 >= 0 
4 x34 + 4 x38 + 4 x42 + 4 x46 - x56 - x57 - x58 - x59 >= 0
4 x56 + 4 x57 + 4 x58 + 4 x59 - x34 - x38 - x42 - x46 >= 0
x34 + x38 + x42 + x46 + x56 + x57 + x58 + x59 - 3 d10 >= 0
d10 - x34 >= 0
d10 - x38 >= 0
d10 - x42 >= 0
d10 - x46 >= 0
d10 - x56 >= 0
d10 - x57 >= 0
d10 - x58 >= 0
d10 - x59 >= 0
x35 - a11 <= 0 
x39 - a11 <= 0 
x43 - a11 <= 0 
x47 - a11 <= 0 
x35 + x39 + x43 + x47 - a11 >= 0 
4 x35 + 4 x39 + 4 x43 + 4 x47 - x60 - x61 - x62 - x63 >= 0
4 x60 + 4 x61 + 4 x62 + 4 x63 - x35 - x39 - x43 - x47 >= 0
x35 + x39 + x43 + x47 + x60 + x61 + x62 + x63 - 3 d11 >= 0
d11 - x35 >= 0
d11 - x39 >= 0
d11 - x43 >= 0
d11 - x47 >= 0
d11 - x60 >= 0
d11 - x61 >= 0
d11 - x62 >= 0
d11 - x63 >= 0
x0 + x1 + x2 + x3 + x4 + x5 + x6 + x7 + x8 + x9 + x10 + x11 + x12 + x13 + x14 + x15 >= 1
Binary
x0
x1
x2
x3
x4
x5
x6
x7
x8
x9
x10
x11
x12
x13
x14
x15
a0
a1
a2
a3
a4
a5
a6
a7
a8
a9
a10
a11
d0
d1
d2
d3
d4
d5
d6
d7
d8
d9
d10
d11
End
